100
75 75
1 59 862
2 58 105
3 58 915
4 58 332
5 58 498
6 58 848
7 58 590
8 57 144
9 57 652
10 57 965
11 57 654
12 57 374
13 57 229
14 57 971
15 56 636
16 56 345
17 56 909
18 55 0
19 55 911
20 54 131
21 54 515
22 52 938
23 52 175
24 50 417
25 50 947
26 49 175
27 49 263
28 48 137
29 48 892
30 48 914
31 48 444
32 47 447
33 47 188
34 47 236
35 47 861
36 47 347
37 46 121
38 46 671
39 46 449
40 45 581
41 45 115
42 43 622
43 42 36
44 42 234
45 41 87
46 40 911
47 40 260
48 38 962
49 38 235
50 37 787
51 37 443
52 36 577
53 36 257
54 36 804
55 35 533
56 35 527
57 35 550
58 34 667
59 34 247
60 33 837
61 33 649
62 32 900
63 31 842
64 31 763
65 29 701
66 29 33
67 28 927
68 28 587
69 28 28
70 28 435
71 28 246
72 27 338
73 27 207
74 26 540
75 25 54
76 24 891
77 24 104
78 23 944
79 23 436
80 23 538
81 23 947
82 23 260
83 23 979
84 22 234
85 22 748
86 22 728
87 21 245
88 20 245
89 19 136
90 19 643
91 19 756
92 19 828
93 18 873
94 18 920
95 18 385
96 18 671
97 18 727
98 18 147
99 17 475
100 16 245
